(set-info :smt-lib-version 2.0)
(set-logic ALL)
; variable declaration
(declare-const rdxo_0 (_ BitVec 64))
(declare-const zero_1 (_ BitVec 1))
(declare-const r8_9 (_ BitVec 64))
(declare-const r8_8 (_ BitVec 64))
(declare-const r8_7 (_ BitVec 64))
(declare-const r8_6 (_ BitVec 64))
(declare-const r8_5 (_ BitVec 64))
(declare-const r8_4 (_ BitVec 64))
(declare-const r8_3 (_ BitVec 64))
(declare-const r8_2 (_ BitVec 64))
(declare-const r8_1 (_ BitVec 64))
(declare-const c3_1 (_ BitVec 64))
(declare-const r13_2 (_ BitVec 64))
(declare-const r13_1 (_ BitVec 64))
(declare-const ddcc_4 (_ BitVec 64))
(declare-const ddcc_3 (_ BitVec 64))
(declare-const ddcc_2 (_ BitVec 64))
(declare-const ddcc_1 (_ BitVec 64))
(declare-const L0x7fffffffdc98_1 (_ BitVec 64))
(declare-const L0x7fffffffdc60_1 (_ BitVec 64))
(declare-const tmp_4 (_ BitVec 1))
(declare-const tmp_3 (_ BitVec 1))
(declare-const tmp_2 (_ BitVec 1))
(declare-const tmp_1 (_ BitVec 1))
(declare-const dontcare_4 (_ BitVec 64))
(declare-const dontcare_3 (_ BitVec 64))
(declare-const dontcare_2 (_ BitVec 64))
(declare-const dontcare_1 (_ BitVec 64))
(declare-const a2_0 (_ BitVec 64))
(declare-const L0x55555557c008_1 (_ BitVec 64))
(declare-const a0_0 (_ BitVec 64))
(declare-const rsi_1 (_ BitVec 64))
(declare-const rcx_9 (_ BitVec 64))
(declare-const rcx_8 (_ BitVec 64))
(declare-const rcx_7 (_ BitVec 64))
(declare-const rcx_6 (_ BitVec 64))
(declare-const rcx_5 (_ BitVec 64))
(declare-const rcx_4 (_ BitVec 64))
(declare-const rcx_3 (_ BitVec 64))
(declare-const rcx_2 (_ BitVec 64))
(declare-const rcx_1 (_ BitVec 64))
(declare-const carry_21 (_ BitVec 1))
(declare-const carry_20 (_ BitVec 1))
(declare-const carry_19 (_ BitVec 1))
(declare-const carry_18 (_ BitVec 1))
(declare-const carry_17 (_ BitVec 1))
(declare-const carry_16 (_ BitVec 1))
(declare-const carry_15 (_ BitVec 1))
(declare-const carry_14 (_ BitVec 1))
(declare-const carry_13 (_ BitVec 1))
(declare-const carry_12 (_ BitVec 1))
(declare-const carry_11 (_ BitVec 1))
(declare-const carry_10 (_ BitVec 1))
(declare-const carry_9 (_ BitVec 1))
(declare-const carry_8 (_ BitVec 1))
(declare-const carry_7 (_ BitVec 1))
(declare-const carry_6 (_ BitVec 1))
(declare-const carry_5 (_ BitVec 1))
(declare-const carry_4 (_ BitVec 1))
(declare-const carry_3 (_ BitVec 1))
(declare-const carry_2 (_ BitVec 1))
(declare-const carry_1 (_ BitVec 1))
(declare-const m1_0 (_ BitVec 64))
(declare-const ddc_4 (_ BitVec 64))
(declare-const ddc_3 (_ BitVec 64))
(declare-const ddc_2 (_ BitVec 64))
(declare-const ddc_1 (_ BitVec 64))
(declare-const overflow_5 (_ BitVec 1))
(declare-const overflow_4 (_ BitVec 1))
(declare-const overflow_3 (_ BitVec 1))
(declare-const overflow_2 (_ BitVec 1))
(declare-const overflow_1 (_ BitVec 1))
(declare-const r10_9 (_ BitVec 64))
(declare-const r10_8 (_ BitVec 64))
(declare-const r10_7 (_ BitVec 64))
(declare-const r10_6 (_ BitVec 64))
(declare-const r10_5 (_ BitVec 64))
(declare-const r10_4 (_ BitVec 64))
(declare-const r10_3 (_ BitVec 64))
(declare-const r10_2 (_ BitVec 64))
(declare-const r10_1 (_ BitVec 64))
(declare-const L0x55555557c010_1 (_ BitVec 64))
(declare-const m3_0 (_ BitVec 64))
(declare-const L0x7fffffffdca8_1 (_ BitVec 64))
(declare-const rdx_9 (_ BitVec 64))
(declare-const rdx_8 (_ BitVec 64))
(declare-const rdx_7 (_ BitVec 64))
(declare-const rdx_6 (_ BitVec 64))
(declare-const rdx_5 (_ BitVec 64))
(declare-const rdx_4 (_ BitVec 64))
(declare-const rdx_3 (_ BitVec 64))
(declare-const rdx_2 (_ BitVec 64))
(declare-const rdx_1 (_ BitVec 64))
(declare-const r10o_0 (_ BitVec 64))
(declare-const a1_0 (_ BitVec 64))
(declare-const r11_8 (_ BitVec 64))
(declare-const r11_7 (_ BitVec 64))
(declare-const r11_6 (_ BitVec 64))
(declare-const r11_5 (_ BitVec 64))
(declare-const r11_4 (_ BitVec 64))
(declare-const r11_3 (_ BitVec 64))
(declare-const r11_2 (_ BitVec 64))
(declare-const r11_1 (_ BitVec 64))
(declare-const L0x55555557c018_1 (_ BitVec 64))
(declare-const r8o_0 (_ BitVec 64))
(declare-const m0_0 (_ BitVec 64))
(declare-const L0x7fffffffdc68_1 (_ BitVec 64))
(declare-const r9_9 (_ BitVec 64))
(declare-const r9_8 (_ BitVec 64))
(declare-const r9_7 (_ BitVec 64))
(declare-const r9_6 (_ BitVec 64))
(declare-const r9_5 (_ BitVec 64))
(declare-const r9_4 (_ BitVec 64))
(declare-const r9_3 (_ BitVec 64))
(declare-const r9_2 (_ BitVec 64))
(declare-const r9_1 (_ BitVec 64))
(declare-const r12_1 (_ BitVec 64))
(declare-const c1_1 (_ BitVec 64))
(declare-const L0x7fffffffdc58_1 (_ BitVec 64))
(declare-const L0x7fffffffdca0_1 (_ BitVec 64))
(declare-const rax_9 (_ BitVec 64))
(declare-const rax_8 (_ BitVec 64))
(declare-const rax_7 (_ BitVec 64))
(declare-const rax_6 (_ BitVec 64))
(declare-const rax_5 (_ BitVec 64))
(declare-const rax_4 (_ BitVec 64))
(declare-const rax_3 (_ BitVec 64))
(declare-const rax_2 (_ BitVec 64))
(declare-const rax_1 (_ BitVec 64))
(declare-const m2_0 (_ BitVec 64))
(declare-const r9o_0 (_ BitVec 64))
(declare-const L0x55555557c000_1 (_ BitVec 64))
(declare-const c2_1 (_ BitVec 64))
(declare-const a3_0 (_ BitVec 64))
(declare-const L0x7fffffffdc50_1 (_ BitVec 64))
(declare-const c0_1 (_ BitVec 64))
(declare-const L0x7fffffffdc90_1 (_ BitVec 64))
; range precondition and program 
(assert (and (and (and (and (= m0_0 #xFFFFFFFFFFFFFFFF) (= m1_0 #x00000000FFFFFFFF)) (= m2_0 #x0000000000000000)) (= m3_0 #xFFFFFFFF00000001)) (bvult (bvadd (bvmul ((_ zero_extend 192) a0_0) #x0000000000000000000000000000000000000000000000000000000000000001) (bvadd (bvmul ((_ zero_extend 192) a1_0) #x0000000000000000000000000000000000000000000000010000000000000000) (bvadd (bvmul ((_ zero_extend 192) a2_0) #x0000000000000000000000000000000100000000000000000000000000000000) (bvmul ((_ zero_extend 192) a3_0) #x0000000000000001000000000000000000000000000000000000000000000000)))) (bvadd (bvmul ((_ zero_extend 192) m0_0) #x0000000000000000000000000000000000000000000000000000000000000001) (bvadd (bvmul ((_ zero_extend 192) m1_0) #x0000000000000000000000000000000000000000000000010000000000000000) (bvadd (bvmul ((_ zero_extend 192) m2_0) #x0000000000000000000000000000000100000000000000000000000000000000) (bvmul ((_ zero_extend 192) m3_0) #x0000000000000001000000000000000000000000000000000000000000000000)))))))
(assert (= L0x7fffffffdc50_1 a0_0))
(assert (= L0x7fffffffdc58_1 a1_0))
(assert (= L0x7fffffffdc60_1 a2_0))
(assert (= L0x7fffffffdc68_1 a3_0))
(assert (= L0x55555557c000_1 #xFFFFFFFFFFFFFFFF))
(assert (= L0x55555557c008_1 #x00000000FFFFFFFF))
(assert (= L0x55555557c010_1 #x0000000000000000))
(assert (= L0x55555557c018_1 #xFFFFFFFF00000001))
(assert (= rax_1 L0x7fffffffdc50_1))
(assert (= r13_1 L0x55555557c018_1))
(assert (= r9_1 L0x7fffffffdc58_1))
(assert (= r10_1 L0x7fffffffdc60_1))
(assert (= r11_1 L0x7fffffffdc68_1))
(assert (= r8_1 rax_1))
(assert (= r12_1 L0x55555557c008_1))
(assert (= rcx_1 rax_1))
(assert (and (= ddc_1 ((_ zero_extend 32) ((_ extract 63 32) r8_1))) (= r8_2 ((_ zero_extend 32) ((_ extract 31 0) r8_1)))))
(assert (= r8_3 (bvshl r8_2 #x0000000000000020)))
(assert (and (= rdx_1 ((_ extract 127 64) (bvmul ((_ zero_extend 64) rax_1) ((_ zero_extend 64) r13_1)))) (= rax_2 ((_ extract 63 0) (bvmul ((_ zero_extend 64) rax_1) ((_ zero_extend 64) r13_1))))))
(assert (and (= tmp_1 ((_ extract 64 64) (bvsub ((_ zero_extend 1) rdx_1) ((_ zero_extend 1) #x0000000000000001)))) (= dontcare_1 ((_ extract 63 0) (bvsub ((_ zero_extend 1) rdx_1) ((_ zero_extend 1) #x0000000000000001))))))
(assert (= carry_1 (bvnot tmp_1)))
(assert (= overflow_1 (bvnot tmp_1)))
(assert (and (= rcx_2 ((_ zero_extend 32) ((_ extract 63 32) rcx_1))) (= ddcc_1 ((_ zero_extend 32) ((_ extract 31 0) rcx_1)))))
(assert true)
(assert true)
(assert (and (= carry_2 ((_ extract 64 64) (bvadd ((_ zero_extend 1) r9_1) ((_ zero_extend 1) r8_3)))) (= r9_2 ((_ extract 63 0) (bvadd ((_ zero_extend 1) r9_1) ((_ zero_extend 1) r8_3))))))
(assert (and (= carry_3 ((_ extract 64 64) (bvadd (bvadd ((_ zero_extend 1) r10_1) ((_ zero_extend 1) rcx_2)) ((_ zero_extend 64) carry_2)))) (= r10_2 ((_ extract 63 0) (bvadd (bvadd ((_ zero_extend 1) r10_1) ((_ zero_extend 1) rcx_2)) ((_ zero_extend 64) carry_2))))))
(assert (and (= carry_4 ((_ extract 64 64) (bvadd (bvadd ((_ zero_extend 1) r11_1) ((_ zero_extend 1) rax_2)) ((_ zero_extend 64) carry_3)))) (= r11_2 ((_ extract 63 0) (bvadd (bvadd ((_ zero_extend 1) r11_1) ((_ zero_extend 1) rax_2)) ((_ zero_extend 64) carry_3))))))
(assert (= rax_3 r9_2))
(assert (= rdx_2 (bvadd (bvadd rdx_1 #x0000000000000000) ((_ zero_extend 63) carry_4))))
(assert (= rcx_3 r9_2))
(assert (and (= ddc_2 ((_ zero_extend 32) ((_ extract 63 32) r9_2))) (= r9_3 ((_ zero_extend 32) ((_ extract 31 0) r9_2)))))
(assert (= r9_4 (bvshl r9_3 #x0000000000000020)))
(assert (= r8_4 rdx_2))
(assert (and (= rdx_3 ((_ extract 127 64) (bvmul ((_ zero_extend 64) rax_3) ((_ zero_extend 64) r13_1)))) (= rax_4 ((_ extract 63 0) (bvmul ((_ zero_extend 64) rax_3) ((_ zero_extend 64) r13_1))))))
(assert (and (= tmp_2 ((_ extract 64 64) (bvsub ((_ zero_extend 1) rdx_3) ((_ zero_extend 1) #x0000000000000001)))) (= dontcare_2 ((_ extract 63 0) (bvsub ((_ zero_extend 1) rdx_3) ((_ zero_extend 1) #x0000000000000001))))))
(assert (= carry_5 (bvnot tmp_2)))
(assert (= overflow_2 (bvnot tmp_2)))
(assert (and (= rcx_4 ((_ zero_extend 32) ((_ extract 63 32) rcx_3))) (= ddcc_2 ((_ zero_extend 32) ((_ extract 31 0) rcx_3)))))
(assert true)
(assert true)
(assert (and (= carry_6 ((_ extract 64 64) (bvadd ((_ zero_extend 1) r10_2) ((_ zero_extend 1) r9_4)))) (= r10_3 ((_ extract 63 0) (bvadd ((_ zero_extend 1) r10_2) ((_ zero_extend 1) r9_4))))))
(assert (and (= carry_7 ((_ extract 64 64) (bvadd (bvadd ((_ zero_extend 1) r11_2) ((_ zero_extend 1) rcx_4)) ((_ zero_extend 64) carry_6)))) (= r11_3 ((_ extract 63 0) (bvadd (bvadd ((_ zero_extend 1) r11_2) ((_ zero_extend 1) rcx_4)) ((_ zero_extend 64) carry_6))))))
(assert (and (= carry_8 ((_ extract 64 64) (bvadd (bvadd ((_ zero_extend 1) r8_4) ((_ zero_extend 1) rax_4)) ((_ zero_extend 64) carry_7)))) (= r8_5 ((_ extract 63 0) (bvadd (bvadd ((_ zero_extend 1) r8_4) ((_ zero_extend 1) rax_4)) ((_ zero_extend 64) carry_7))))))
(assert (= rax_5 r10_3))
(assert (= rdx_4 (bvadd (bvadd rdx_3 #x0000000000000000) ((_ zero_extend 63) carry_8))))
(assert (= rcx_5 r10_3))
(assert (and (= ddc_3 ((_ zero_extend 32) ((_ extract 63 32) r10_3))) (= r10_4 ((_ zero_extend 32) ((_ extract 31 0) r10_3)))))
(assert (= r10_5 (bvshl r10_4 #x0000000000000020)))
(assert (= r9_5 rdx_4))
(assert (and (= rdx_5 ((_ extract 127 64) (bvmul ((_ zero_extend 64) rax_5) ((_ zero_extend 64) r13_1)))) (= rax_6 ((_ extract 63 0) (bvmul ((_ zero_extend 64) rax_5) ((_ zero_extend 64) r13_1))))))
(assert (and (= tmp_3 ((_ extract 64 64) (bvsub ((_ zero_extend 1) rdx_5) ((_ zero_extend 1) #x0000000000000001)))) (= dontcare_3 ((_ extract 63 0) (bvsub ((_ zero_extend 1) rdx_5) ((_ zero_extend 1) #x0000000000000001))))))
(assert (= carry_9 (bvnot tmp_3)))
(assert (= overflow_3 (bvnot tmp_3)))
(assert (and (= rcx_6 ((_ zero_extend 32) ((_ extract 63 32) rcx_5))) (= ddcc_3 ((_ zero_extend 32) ((_ extract 31 0) rcx_5)))))
(assert true)
(assert true)
(assert (and (= carry_10 ((_ extract 64 64) (bvadd ((_ zero_extend 1) r11_3) ((_ zero_extend 1) r10_5)))) (= r11_4 ((_ extract 63 0) (bvadd ((_ zero_extend 1) r11_3) ((_ zero_extend 1) r10_5))))))
(assert (and (= carry_11 ((_ extract 64 64) (bvadd (bvadd ((_ zero_extend 1) r8_5) ((_ zero_extend 1) rcx_6)) ((_ zero_extend 64) carry_10)))) (= r8_6 ((_ extract 63 0) (bvadd (bvadd ((_ zero_extend 1) r8_5) ((_ zero_extend 1) rcx_6)) ((_ zero_extend 64) carry_10))))))
(assert (and (= carry_12 ((_ extract 64 64) (bvadd (bvadd ((_ zero_extend 1) r9_5) ((_ zero_extend 1) rax_6)) ((_ zero_extend 64) carry_11)))) (= r9_6 ((_ extract 63 0) (bvadd (bvadd ((_ zero_extend 1) r9_5) ((_ zero_extend 1) rax_6)) ((_ zero_extend 64) carry_11))))))
(assert (= rax_7 r11_4))
(assert (= rdx_6 (bvadd (bvadd rdx_5 #x0000000000000000) ((_ zero_extend 63) carry_12))))
(assert (= rcx_7 r11_4))
(assert (and (= ddc_4 ((_ zero_extend 32) ((_ extract 63 32) r11_4))) (= r11_5 ((_ zero_extend 32) ((_ extract 31 0) r11_4)))))
(assert (= r11_6 (bvshl r11_5 #x0000000000000020)))
(assert (= r10_6 rdx_6))
(assert (and (= rdx_7 ((_ extract 127 64) (bvmul ((_ zero_extend 64) rax_7) ((_ zero_extend 64) r13_1)))) (= rax_8 ((_ extract 63 0) (bvmul ((_ zero_extend 64) rax_7) ((_ zero_extend 64) r13_1))))))
(assert (and (= tmp_4 ((_ extract 64 64) (bvsub ((_ zero_extend 1) rdx_7) ((_ zero_extend 1) #x0000000000000001)))) (= dontcare_4 ((_ extract 63 0) (bvsub ((_ zero_extend 1) rdx_7) ((_ zero_extend 1) #x0000000000000001))))))
(assert (= carry_13 (bvnot tmp_4)))
(assert (= overflow_4 (bvnot tmp_4)))
(assert (and (= rcx_8 ((_ zero_extend 32) ((_ extract 63 32) rcx_7))) (= ddcc_4 ((_ zero_extend 32) ((_ extract 31 0) rcx_7)))))
(assert true)
(assert true)
(assert (and (= carry_14 ((_ extract 64 64) (bvadd ((_ zero_extend 1) r8_6) ((_ zero_extend 1) r11_6)))) (= r8_7 ((_ extract 63 0) (bvadd ((_ zero_extend 1) r8_6) ((_ zero_extend 1) r11_6))))))
(assert (and (= carry_15 ((_ extract 64 64) (bvadd (bvadd ((_ zero_extend 1) r9_6) ((_ zero_extend 1) rcx_8)) ((_ zero_extend 64) carry_14)))) (= r9_7 ((_ extract 63 0) (bvadd (bvadd ((_ zero_extend 1) r9_6) ((_ zero_extend 1) rcx_8)) ((_ zero_extend 64) carry_14))))))
(assert (= rcx_9 r8_7))
(assert (and (= carry_16 ((_ extract 64 64) (bvadd (bvadd ((_ zero_extend 1) r10_6) ((_ zero_extend 1) rax_8)) ((_ zero_extend 64) carry_15)))) (= r10_7 ((_ extract 63 0) (bvadd (bvadd ((_ zero_extend 1) r10_6) ((_ zero_extend 1) rax_8)) ((_ zero_extend 64) carry_15))))))
(assert (= rsi_1 r9_7))
(assert (= rdx_8 (bvadd (bvadd rdx_7 #x0000000000000000) ((_ zero_extend 63) carry_16))))
(assert (and (and (and (= r8o_0 r8_7) (= r9o_0 r9_7)) (= r10o_0 r10_7)) (= rdxo_0 rdx_8)))
(assert (and (= carry_17 ((_ extract 64 64) (bvsub ((_ zero_extend 1) r8_7) ((_ zero_extend 1) #xFFFFFFFFFFFFFFFF)))) (= r8_8 ((_ extract 63 0) (bvsub ((_ zero_extend 1) r8_7) ((_ zero_extend 1) #xFFFFFFFFFFFFFFFF))))))
(assert (= rax_9 r10_7))
(assert (and (= carry_18 ((_ extract 64 64) (bvsub ((_ zero_extend 1) r9_7) (bvadd ((_ zero_extend 1) r12_1) ((_ zero_extend 64) carry_17))))) (= r9_8 ((_ extract 63 0) (bvsub ((_ zero_extend 1) r9_7) (bvadd ((_ zero_extend 1) r12_1) ((_ zero_extend 64) carry_17)))))))
(assert (and (= carry_19 ((_ extract 64 64) (bvsub ((_ zero_extend 1) r10_7) (bvadd ((_ zero_extend 1) #x0000000000000000) ((_ zero_extend 64) carry_18))))) (= r10_8 ((_ extract 63 0) (bvsub ((_ zero_extend 1) r10_7) (bvadd ((_ zero_extend 1) #x0000000000000000) ((_ zero_extend 64) carry_18)))))))
(assert (= r11_7 rdx_8))
(assert (and (= carry_20 ((_ extract 64 64) (bvsub ((_ zero_extend 1) rdx_8) (bvadd ((_ zero_extend 1) r13_1) ((_ zero_extend 64) carry_19))))) (= rdx_9 ((_ extract 63 0) (bvsub ((_ zero_extend 1) rdx_8) (bvadd ((_ zero_extend 1) r13_1) ((_ zero_extend 64) carry_19)))))))
(assert (and (= carry_21 ((_ extract 64 64) (bvsub ((_ zero_extend 1) r13_1) (bvadd ((_ zero_extend 1) r13_1) ((_ zero_extend 64) carry_20))))) (= r13_2 ((_ extract 63 0) (bvsub ((_ zero_extend 1) r13_1) (bvadd ((_ zero_extend 1) r13_1) ((_ zero_extend 64) carry_20)))))))
(assert (= overflow_5 carry_21))
(assert (= zero_1 (bvnot carry_21)))
(assert (= r8_9 (ite (= zero_1 #b1) r8_8 rcx_9)))
(assert (= r9_9 (ite (= zero_1 #b1) r9_8 rsi_1)))
(assert (= L0x7fffffffdc90_1 r8_9))
(assert (= r10_9 (ite (= zero_1 #b1) r10_8 rax_9)))
(assert (= L0x7fffffffdc98_1 r9_9))
(assert (= r11_8 (ite (= zero_1 #b1) rdx_9 r11_7)))
(assert (= L0x7fffffffdca0_1 r10_9))
(assert (= L0x7fffffffdca8_1 r11_8))
(assert (= c0_1 L0x7fffffffdc90_1))
(assert (= c1_1 L0x7fffffffdc98_1))
(assert (= c2_1 L0x7fffffffdca0_1))
(assert (= c3_1 L0x7fffffffdca8_1))
(assert true)
(assert true)
; algebraic precondition and program
(assert (and (and (and (eqP (PConst (bv2nat m0_0)) (PConst 18446744073709551615)) (eqP (PConst (bv2nat m1_0)) (PConst 4294967295))) (eqP (PConst (bv2nat m2_0)) (PConst 0))) (eqP (PConst (bv2nat m3_0)) (PConst 18446744069414584321))))
(assert (eqP (PConst (bv2nat L0x7fffffffdc50_1)) (PConst (bv2nat a0_0))))
(assert (eqP (PConst (bv2nat L0x7fffffffdc58_1)) (PConst (bv2nat a1_0))))
(assert (eqP (PConst (bv2nat L0x7fffffffdc60_1)) (PConst (bv2nat a2_0))))
(assert (eqP (PConst (bv2nat L0x7fffffffdc68_1)) (PConst (bv2nat a3_0))))
(assert (eqP (PConst (bv2nat L0x55555557c000_1)) (PConst 18446744073709551615)))
(assert (eqP (PConst (bv2nat L0x55555557c008_1)) (PConst 4294967295)))
(assert (eqP (PConst (bv2nat L0x55555557c010_1)) (PConst 0)))
(assert (eqP (PConst (bv2nat L0x55555557c018_1)) (PConst 18446744069414584321)))
(assert (eqP (PConst (bv2nat rax_1)) (PConst (bv2nat L0x7fffffffdc50_1))))
(assert (eqP (PConst (bv2nat r13_1)) (PConst (bv2nat L0x55555557c018_1))))
(assert (eqP (PConst (bv2nat r9_1)) (PConst (bv2nat L0x7fffffffdc58_1))))
(assert (eqP (PConst (bv2nat r10_1)) (PConst (bv2nat L0x7fffffffdc60_1))))
(assert (eqP (PConst (bv2nat r11_1)) (PConst (bv2nat L0x7fffffffdc68_1))))
(assert (eqP (PConst (bv2nat r8_1)) (PConst (bv2nat rax_1))))
(assert (eqP (PConst (bv2nat r12_1)) (PConst (bv2nat L0x55555557c008_1))))
(assert (eqP (PConst (bv2nat rcx_1)) (PConst (bv2nat rax_1))))
(assert (eqP (PAdd (PConst (bv2nat r8_2)) (PMul (PConst (bv2nat ddc_1)) (PConst 4294967296))) (PConst (bv2nat r8_1))))
(assert (eqP (PConst (bv2nat r8_3)) (PMul (PConst (bv2nat r8_2)) (PConst 4294967296))))
(assert (eqP (PAdd (PConst (bv2nat rax_2)) (PMul (PConst (bv2nat rdx_1)) (PConst 18446744073709551616))) (PMul (PConst (bv2nat rax_1)) (PConst (bv2nat r13_1)))))
(assert (eqP (PAdd (PSub (PConst (bv2nat rdx_1)) (PConst 1)) (PMul (PConst (bv2nat tmp_1)) (PConst 18446744073709551616))) (PConst (bv2nat dontcare_1))))
(assert (eqP (PConst (bv2nat carry_1)) (PSub (PConst 1) (PConst (bv2nat tmp_1)))))
(assert (eqP (PConst (bv2nat overflow_1)) (PSub (PConst 1) (PConst (bv2nat tmp_1)))))
(assert (eqP (PAdd (PConst (bv2nat ddcc_1)) (PMul (PConst (bv2nat rcx_2)) (PConst 4294967296))) (PConst (bv2nat rcx_1))))
(assert (eqP (PConst (bv2nat ddc_1)) (PConst (bv2nat rcx_2))))
(assert (eqP (PAdd (PConst (bv2nat r9_2)) (PMul (PConst (bv2nat carry_2)) (PConst 18446744073709551616))) (PAdd (PConst (bv2nat r9_1)) (PConst (bv2nat r8_3)))))
(assert (eqP (PAdd (PConst (bv2nat r10_2)) (PMul (PConst (bv2nat carry_3)) (PConst 18446744073709551616))) (PAdd (PAdd (PConst (bv2nat r10_1)) (PConst (bv2nat rcx_2))) (PConst (bv2nat carry_2)))))
(assert (eqP (PAdd (PConst (bv2nat r11_2)) (PMul (PConst (bv2nat carry_4)) (PConst 18446744073709551616))) (PAdd (PAdd (PConst (bv2nat r11_1)) (PConst (bv2nat rax_2))) (PConst (bv2nat carry_3)))))
(assert (eqP (PConst (bv2nat rax_3)) (PConst (bv2nat r9_2))))
(assert (eqP (PConst (bv2nat rdx_2)) (PAdd (PAdd (PConst (bv2nat rdx_1)) (PConst 0)) (PConst (bv2nat carry_4)))))
(assert (eqP (PConst (bv2nat rcx_3)) (PConst (bv2nat r9_2))))
(assert (eqP (PAdd (PConst (bv2nat r9_3)) (PMul (PConst (bv2nat ddc_2)) (PConst 4294967296))) (PConst (bv2nat r9_2))))
(assert (eqP (PConst (bv2nat r9_4)) (PMul (PConst (bv2nat r9_3)) (PConst 4294967296))))
(assert (eqP (PConst (bv2nat r8_4)) (PConst (bv2nat rdx_2))))
(assert (eqP (PAdd (PConst (bv2nat rax_4)) (PMul (PConst (bv2nat rdx_3)) (PConst 18446744073709551616))) (PMul (PConst (bv2nat rax_3)) (PConst (bv2nat r13_1)))))
(assert (eqP (PAdd (PSub (PConst (bv2nat rdx_3)) (PConst 1)) (PMul (PConst (bv2nat tmp_2)) (PConst 18446744073709551616))) (PConst (bv2nat dontcare_2))))
(assert (eqP (PConst (bv2nat carry_5)) (PSub (PConst 1) (PConst (bv2nat tmp_2)))))
(assert (eqP (PConst (bv2nat overflow_2)) (PSub (PConst 1) (PConst (bv2nat tmp_2)))))
(assert (eqP (PAdd (PConst (bv2nat ddcc_2)) (PMul (PConst (bv2nat rcx_4)) (PConst 4294967296))) (PConst (bv2nat rcx_3))))
(assert (eqP (PConst (bv2nat ddc_2)) (PConst (bv2nat rcx_4))))
(assert (eqP (PAdd (PConst (bv2nat r10_3)) (PMul (PConst (bv2nat carry_6)) (PConst 18446744073709551616))) (PAdd (PConst (bv2nat r10_2)) (PConst (bv2nat r9_4)))))
(assert (eqP (PAdd (PConst (bv2nat r11_3)) (PMul (PConst (bv2nat carry_7)) (PConst 18446744073709551616))) (PAdd (PAdd (PConst (bv2nat r11_2)) (PConst (bv2nat rcx_4))) (PConst (bv2nat carry_6)))))
(assert (eqP (PAdd (PConst (bv2nat r8_5)) (PMul (PConst (bv2nat carry_8)) (PConst 18446744073709551616))) (PAdd (PAdd (PConst (bv2nat r8_4)) (PConst (bv2nat rax_4))) (PConst (bv2nat carry_7)))))
(assert (eqP (PConst (bv2nat rax_5)) (PConst (bv2nat r10_3))))
(assert (eqP (PConst (bv2nat rdx_4)) (PAdd (PAdd (PConst (bv2nat rdx_3)) (PConst 0)) (PConst (bv2nat carry_8)))))
(assert (eqP (PConst (bv2nat rcx_5)) (PConst (bv2nat r10_3))))
(assert (eqP (PAdd (PConst (bv2nat r10_4)) (PMul (PConst (bv2nat ddc_3)) (PConst 4294967296))) (PConst (bv2nat r10_3))))
(assert (eqP (PConst (bv2nat r10_5)) (PMul (PConst (bv2nat r10_4)) (PConst 4294967296))))
(assert (eqP (PConst (bv2nat r9_5)) (PConst (bv2nat rdx_4))))
(assert (eqP (PAdd (PConst (bv2nat rax_6)) (PMul (PConst (bv2nat rdx_5)) (PConst 18446744073709551616))) (PMul (PConst (bv2nat rax_5)) (PConst (bv2nat r13_1)))))
(assert (eqP (PAdd (PSub (PConst (bv2nat rdx_5)) (PConst 1)) (PMul (PConst (bv2nat tmp_3)) (PConst 18446744073709551616))) (PConst (bv2nat dontcare_3))))
(assert (eqP (PConst (bv2nat carry_9)) (PSub (PConst 1) (PConst (bv2nat tmp_3)))))
(assert (eqP (PConst (bv2nat overflow_3)) (PSub (PConst 1) (PConst (bv2nat tmp_3)))))
(assert (eqP (PAdd (PConst (bv2nat ddcc_3)) (PMul (PConst (bv2nat rcx_6)) (PConst 4294967296))) (PConst (bv2nat rcx_5))))
(assert (eqP (PConst (bv2nat ddc_3)) (PConst (bv2nat rcx_6))))
(assert (eqP (PAdd (PConst (bv2nat r11_4)) (PMul (PConst (bv2nat carry_10)) (PConst 18446744073709551616))) (PAdd (PConst (bv2nat r11_3)) (PConst (bv2nat r10_5)))))
(assert (eqP (PAdd (PConst (bv2nat r8_6)) (PMul (PConst (bv2nat carry_11)) (PConst 18446744073709551616))) (PAdd (PAdd (PConst (bv2nat r8_5)) (PConst (bv2nat rcx_6))) (PConst (bv2nat carry_10)))))
(assert (eqP (PAdd (PConst (bv2nat r9_6)) (PMul (PConst (bv2nat carry_12)) (PConst 18446744073709551616))) (PAdd (PAdd (PConst (bv2nat r9_5)) (PConst (bv2nat rax_6))) (PConst (bv2nat carry_11)))))
(assert (eqP (PConst (bv2nat rax_7)) (PConst (bv2nat r11_4))))
(assert (eqP (PConst (bv2nat rdx_6)) (PAdd (PAdd (PConst (bv2nat rdx_5)) (PConst 0)) (PConst (bv2nat carry_12)))))
(assert (eqP (PConst (bv2nat rcx_7)) (PConst (bv2nat r11_4))))
(assert (eqP (PAdd (PConst (bv2nat r11_5)) (PMul (PConst (bv2nat ddc_4)) (PConst 4294967296))) (PConst (bv2nat r11_4))))
(assert (eqP (PConst (bv2nat r11_6)) (PMul (PConst (bv2nat r11_5)) (PConst 4294967296))))
(assert (eqP (PConst (bv2nat r10_6)) (PConst (bv2nat rdx_6))))
(assert (eqP (PAdd (PConst (bv2nat rax_8)) (PMul (PConst (bv2nat rdx_7)) (PConst 18446744073709551616))) (PMul (PConst (bv2nat rax_7)) (PConst (bv2nat r13_1)))))
(assert (eqP (PAdd (PSub (PConst (bv2nat rdx_7)) (PConst 1)) (PMul (PConst (bv2nat tmp_4)) (PConst 18446744073709551616))) (PConst (bv2nat dontcare_4))))
(assert (eqP (PConst (bv2nat carry_13)) (PSub (PConst 1) (PConst (bv2nat tmp_4)))))
(assert (eqP (PConst (bv2nat overflow_4)) (PSub (PConst 1) (PConst (bv2nat tmp_4)))))
(assert (eqP (PAdd (PConst (bv2nat ddcc_4)) (PMul (PConst (bv2nat rcx_8)) (PConst 4294967296))) (PConst (bv2nat rcx_7))))
(assert (eqP (PConst (bv2nat ddc_4)) (PConst (bv2nat rcx_8))))
(assert (eqP (PAdd (PConst (bv2nat r8_7)) (PMul (PConst (bv2nat carry_14)) (PConst 18446744073709551616))) (PAdd (PConst (bv2nat r8_6)) (PConst (bv2nat r11_6)))))
(assert (eqP (PAdd (PConst (bv2nat r9_7)) (PMul (PConst (bv2nat carry_15)) (PConst 18446744073709551616))) (PAdd (PAdd (PConst (bv2nat r9_6)) (PConst (bv2nat rcx_8))) (PConst (bv2nat carry_14)))))
(assert (eqP (PConst (bv2nat rcx_9)) (PConst (bv2nat r8_7))))
(assert (eqP (PAdd (PConst (bv2nat r10_7)) (PMul (PConst (bv2nat carry_16)) (PConst 18446744073709551616))) (PAdd (PAdd (PConst (bv2nat r10_6)) (PConst (bv2nat rax_8))) (PConst (bv2nat carry_15)))))
(assert (eqP (PConst (bv2nat rsi_1)) (PConst (bv2nat r9_7))))
(assert (eqP (PConst (bv2nat rdx_8)) (PAdd (PAdd (PConst (bv2nat rdx_7)) (PConst 0)) (PConst (bv2nat carry_16)))))
(assert (eqP (PConst (bv2nat r8o_0)) (PConst (bv2nat r8_7))))
(assert (eqP (PConst (bv2nat r9o_0)) (PConst (bv2nat r9_7))))
(assert (eqP (PConst (bv2nat r10o_0)) (PConst (bv2nat r10_7))))
(assert (eqP (PConst (bv2nat rdxo_0)) (PConst (bv2nat rdx_8))))
(assert (eqP (PAdd (PSub (PConst (bv2nat r8_7)) (PConst 18446744073709551615)) (PMul (PConst (bv2nat carry_17)) (PConst 18446744073709551616))) (PConst (bv2nat r8_8))))
(assert (eqP (PConst (bv2nat rax_9)) (PConst (bv2nat r10_7))))
(assert (eqP (PAdd (PConst (bv2nat r9_8)) (PMul (PNeg (PConst (bv2nat carry_18))) (PConst 18446744073709551616))) (PSub (PSub (PConst (bv2nat r9_7)) (PConst (bv2nat r12_1))) (PConst (bv2nat carry_17)))))
(assert (eqP (PAdd (PConst (bv2nat r10_8)) (PMul (PNeg (PConst (bv2nat carry_19))) (PConst 18446744073709551616))) (PSub (PSub (PConst (bv2nat r10_7)) (PConst 0)) (PConst (bv2nat carry_18)))))
(assert (eqP (PConst (bv2nat r11_7)) (PConst (bv2nat rdx_8))))
(assert (eqP (PAdd (PConst (bv2nat rdx_9)) (PMul (PNeg (PConst (bv2nat carry_20))) (PConst 18446744073709551616))) (PSub (PSub (PConst (bv2nat rdx_8)) (PConst (bv2nat r13_1))) (PConst (bv2nat carry_19)))))
(assert (eqP (PAdd (PConst (bv2nat r13_2)) (PMul (PNeg (PConst (bv2nat carry_21))) (PConst 18446744073709551616))) (PSub (PSub (PConst (bv2nat r13_1)) (PConst (bv2nat r13_1))) (PConst (bv2nat carry_20)))))
(assert (eqP (PConst (bv2nat overflow_5)) (PConst (bv2nat carry_21))))
(assert (eqP (PConst (bv2nat zero_1)) (PSub (PConst 1) (PConst (bv2nat carry_21)))))
(assert (eqP (PConst (bv2nat r8_9)) (PAdd (PMul (PConst (bv2nat zero_1)) (PConst (bv2nat r8_8))) (PMul (PSub (PConst 1) (PConst (bv2nat zero_1))) (PConst (bv2nat rcx_9))))))
(assert (eqP (PConst (bv2nat r9_9)) (PAdd (PMul (PConst (bv2nat zero_1)) (PConst (bv2nat r9_8))) (PMul (PSub (PConst 1) (PConst (bv2nat zero_1))) (PConst (bv2nat rsi_1))))))
(assert (eqP (PConst (bv2nat L0x7fffffffdc90_1)) (PConst (bv2nat r8_9))))
(assert (eqP (PConst (bv2nat r10_9)) (PAdd (PMul (PConst (bv2nat zero_1)) (PConst (bv2nat r10_8))) (PMul (PSub (PConst 1) (PConst (bv2nat zero_1))) (PConst (bv2nat rax_9))))))
(assert (eqP (PConst (bv2nat L0x7fffffffdc98_1)) (PConst (bv2nat r9_9))))
(assert (eqP (PConst (bv2nat r11_8)) (PAdd (PMul (PConst (bv2nat zero_1)) (PConst (bv2nat rdx_9))) (PMul (PSub (PConst 1) (PConst (bv2nat zero_1))) (PConst (bv2nat r11_7))))))
(assert (eqP (PConst (bv2nat L0x7fffffffdca0_1)) (PConst (bv2nat r10_9))))
(assert (eqP (PConst (bv2nat L0x7fffffffdca8_1)) (PConst (bv2nat r11_8))))
(assert (eqP (PConst (bv2nat c0_1)) (PConst (bv2nat L0x7fffffffdc90_1))))
(assert (eqP (PConst (bv2nat c1_1)) (PConst (bv2nat L0x7fffffffdc98_1))))
(assert (eqP (PConst (bv2nat c2_1)) (PConst (bv2nat L0x7fffffffdca0_1))))
(assert (eqP (PConst (bv2nat c3_1)) (PConst (bv2nat L0x7fffffffdca8_1))))
(assert (eqmodP1 (PAdd (PAdd (PAdd (PConst (bv2nat c0_1)) (PMul (PConst (bv2nat c1_1)) (PPow (PConst 2) 64))) (PMul (PConst (bv2nat c2_1)) (PPow (PConst 2) 128))) (PMul (PConst (bv2nat c3_1)) (PPow (PConst 2) 192))) (PAdd (PAdd (PAdd (PConst (bv2nat r8o_0)) (PMul (PConst (bv2nat r9o_0)) (PPow (PConst 2) 64))) (PMul (PConst (bv2nat r10o_0)) (PPow (PConst 2) 128))) (PMul (PConst (bv2nat rdxo_0)) (PPow (PConst 2) 192))) (PAdd (PAdd (PAdd (PConst (bv2nat m0_0)) (PMul (PConst (bv2nat m1_0)) (PPow (PConst 2) 64))) (PMul (PConst (bv2nat m2_0)) (PPow (PConst 2) 128))) (PMul (PConst (bv2nat m3_0)) (PPow (PConst 2) 192)))))
; postcondition
(assert (not (and true (eqmodP1 (PAdd (PAdd (PAdd (PConst (bv2nat a0_0)) (PMul (PConst (bv2nat a1_0)) (PPow (PConst 2) 64))) (PMul (PConst (bv2nat a2_0)) (PPow (PConst 2) 128))) (PMul (PConst (bv2nat a3_0)) (PPow (PConst 2) 192))) (PAdd (PAdd (PAdd (PAdd (PAdd (PAdd (PAdd (PConst 0) (PMul (PConst 0) (PPow (PConst 2) 64))) (PMul (PConst 0) (PPow (PConst 2) 128))) (PMul (PConst 0) (PPow (PConst 2) 192))) (PMul (PConst (bv2nat c0_1)) (PPow (PConst 2) 256))) (PMul (PConst (bv2nat c1_1)) (PPow (PConst 2) 320))) (PMul (PConst (bv2nat c2_1)) (PPow (PConst 2) 384))) (PMul (PConst (bv2nat c3_1)) (PPow (PConst 2) 448))) (PAdd (PAdd (PAdd (PConst (bv2nat m0_0)) (PMul (PConst (bv2nat m1_0)) (PPow (PConst 2) 64))) (PMul (PConst (bv2nat m2_0)) (PPow (PConst 2) 128))) (PMul (PConst (bv2nat m3_0)) (PPow (PConst 2) 192)))))))
; check
(check-sat)
(exit)
